70
1 0 87
2 0 86
2 1 73
3 0 56
3 1 111
3 2 40
4 0 11
4 1 102
4 2 72
4 3 53
5 0 26
5 1 28
5 2 46
5 3 97
5 4 102
6 0 34
6 1 59
6 2 43
6 3 25
6 4 60
6 5 103
7 0 49
7 1 97
7 2 35
7 3 69
7 4 33
7 5 41
7 6 47
8 0 19
8 1 51
8 2 52
8 3 51
8 4 27
8 5 90
8 6 87
8 7 86
9 0 68
9 1 67
9 2 90
9 3 98
9 4 91
9 5 54
9 6 49
9 7 28
9 8 92
10 0 15
10 1 8
10 2 26
10 3 22
10 4 96
10 5 83
10 6 113
10 7 6
10 8 95
10 9 53
11 0 12
11 1 56
11 2 54
11 3 66
11 4 96
11 5 36
11 6 52
11 7 78
11 8 66
11 9 102
11 10 13
12 0 80
12 1 41
12 2 25
12 3 64
12 4 120
12 5 45
12 6 79
12 7 24
12 8 82
12 9 102
12 10 41
12 11 85
13 0 69
13 1 104
13 2 16
13 3 100
13 4 3
13 5 49
13 6 44
13 7 95
13 8 38
13 9 99
13 10 95
13 11 75
13 12 112
14 0 56
14 1 15
14 2 119
14 3 66
14 4 28
14 5 96
14 6 100
14 7 10
14 8 35
14 9 117
14 10 77
14 11 48
14 12 21
14 13 104
15 0 42
15 1 48
15 2 118
15 3 103
15 4 6
15 5 70
15 6 58
15 7 18
15 8 4
15 9 54
15 10 39
15 11 82
15 12 108
15 13 12
15 14 64
16 0 86
16 1 94
16 2 9
16 3 22
16 4 49
16 5 90
16 6 37
16 7 94
16 8 116
16 9 11
16 10 69
16 11 99
16 12 61
16 13 12
16 14 114
16 15 63
17 0 73
17 1 37
17 2 12
17 3 82
17 4 12
17 5 69
17 6 57
17 7 36
17 8 81
17 9 35
17 10 76
17 11 16
17 12 47
17 13 79
17 14 42
17 15 73
17 16 2
18 0 103
18 1 24
18 2 77
18 3 107
18 4 60
18 5 88
18 6 26
18 7 98
18 8 76
18 9 71
18 10 112
18 11 108
18 12 42
18 13 118
18 14 89
18 15 82
18 16 77
18 17 49
19 0 74
19 1 89
19 2 3
19 3 82
19 4 113
19 5 82
19 6 34
19 7 67
19 8 89
19 9 33
19 10 1
19 11 52
19 12 21
19 13 115
19 14 18
19 15 6
19 16 97
19 17 24
19 18 66
20 0 17
20 1 74
20 2 36
20 3 18
20 4 43
20 5 92
20 6 73
20 7 56
20 8 14
20 9 73
20 10 39
20 11 55
20 12 113
20 13 51
20 14 37
20 15 108
20 16 77
20 17 99
20 18 70
20 19 99
21 0 49
21 1 107
21 2 50
21 3 91
21 4 49
21 5 62
21 6 29
21 7 85
21 8 101
21 9 45
21 10 86
21 11 21
21 12 34
21 13 70
21 14 92
21 15 84
21 16 91
21 17 2
21 18 39
21 19 69
21 20 10
22 0 91
22 1 19
22 2 104
22 3 24
22 4 20
22 5 7
22 6 99
22 7 80
22 8 68
22 9 16
22 10 40
22 11 58
22 12 69
22 13 14
22 14 115
22 15 112
22 16 54
22 17 106
22 18 92
22 19 13
22 20 12
22 21 65
23 0 117
23 1 30
23 2 73
23 3 105
23 4 15
23 5 30
23 6 40
23 7 111
23 8 31
23 9 85
23 10 7
23 11 10
23 12 40
23 13 60
23 14 82
23 15 105
23 16 120
23 17 101
23 18 48
23 19 41
23 20 21
23 21 17
23 22 53
24 0 95
24 1 37
24 2 26
24 3 91
24 4 17
24 5 16
24 6 78
24 7 33
24 8 42
24 9 39
24 10 46
24 11 60
24 12 56
24 13 53
24 14 94
24 15 86
24 16 41
24 17 111
24 18 94
24 19 7
24 20 21
24 21 13
24 22 103
24 23 6
25 0 25
25 1 66
25 2 117
25 3 67
25 4 48
25 5 14
25 6 79
25 7 25
25 8 104
25 9 67
25 10 103
25 11 73
25 12 47
25 13 72
25 14 53
25 15 13
25 16 37
25 17 88
25 18 20
25 19 95
25 20 61
25 21 31
25 22 83
25 23 115
25 24 59
26 0 33
26 1 116
26 2 45
26 3 73
26 4 75
26 5 110
26 6 115
26 7 114
26 8 119
26 9 56
26 10 86
26 11 63
26 12 84
26 13 16
26 14 8
26 15 86
26 16 113
26 17 97
26 18 111
26 19 9
26 20 43
26 21 60
26 22 15
26 23 1
26 24 36
26 25 17
27 0 16
27 1 120
27 2 20
27 3 72
27 4 119
27 5 19
27 6 81
27 7 84
27 8 10
27 9 64
27 10 111
27 11 98
27 12 14
27 13 41
27 14 71
27 15 26
27 16 43
27 17 113
27 18 81
27 19 53
27 20 10
27 21 65
27 22 66
27 23 28
27 24 95
27 25 66
27 26 47
28 0 101
28 1 69
28 2 41
28 3 10
28 4 96
28 5 83
28 6 100
28 7 19
28 8 40
28 9 44
28 10 112
28 11 65
28 12 16
28 13 20
28 14 4
28 15 5
28 16 18
28 17 82
28 18 108
28 19 99
28 20 67
28 21 23
28 22 89
28 23 46
28 24 12
28 25 72
28 26 33
28 27 90
29 0 55
29 1 109
29 2 7
29 3 106
29 4 42
29 5 102
29 6 51
29 7 64
29 8 63
29 9 72
29 10 92
29 11 5
29 12 99
29 13 70
29 14 11
29 15 96
29 16 117
29 17 105
29 18 116
29 19 49
29 20 99
29 21 76
29 22 37
29 23 84
29 24 15
29 25 72
29 26 93
29 27 22
29 28 22
30 0 80
30 1 62
30 2 72
30 3 101
30 4 114
30 5 72
30 6 75
30 7 82
30 8 106
30 9 59
30 10 105
30 11 55
30 12 36
30 13 33
30 14 99
30 15 4
30 16 68
30 17 62
30 18 30
30 19 57
30 20 19
30 21 111
30 22 34
30 23 120
30 24 23
30 25 41
30 26 31
30 27 96
30 28 116
30 29 76
31 0 101
31 1 29
31 2 50
31 3 49
31 4 30
31 5 87
31 6 119
31 7 98
31 8 51
31 9 27
31 10 66
31 11 97
31 12 63
31 13 51
31 14 120
31 15 58
31 16 16
31 17 97
31 18 3
31 19 70
31 20 117
31 21 32
31 22 8
31 23 14
31 24 16
31 25 116
31 26 30
31 27 89
31 28 109
31 29 70
31 30 19
32 0 55
32 1 115
32 2 22
32 3 57
32 4 65
32 5 41
32 6 33
32 7 110
32 8 114
32 9 63
32 10 111
32 11 10
32 12 69
32 13 60
32 14 100
32 15 8
32 16 8
32 17 74
32 18 102
32 19 104
32 20 12
32 21 94
32 22 36
32 23 18
32 24 33
32 25 7
32 26 11
32 27 89
32 28 18
32 29 104
32 30 64
32 31 107
33 0 111
33 1 40
33 2 24
33 3 48
33 4 108
33 5 51
33 6 53
33 7 95
33 8 85
33 9 119
33 10 30
33 11 57
33 12 102
33 13 100
33 14 73
33 15 49
33 16 19
33 17 44
33 18 70
33 19 75
33 20 22
33 21 68
33 22 90
33 23 106
33 24 69
33 25 22
33 26 81
33 27 7
33 28 119
33 29 69
33 30 75
33 31 18
33 32 12
34 0 52
34 1 82
34 2 5
34 3 87
34 4 41
34 5 103
34 6 40
34 7 24
34 8 13
34 9 11
34 10 107
34 11 51
34 12 114
34 13 5
34 14 111
34 15 29
34 16 36
34 17 8
34 18 101
34 19 20
34 20 88
34 21 109
34 22 6
34 23 62
34 24 10
34 25 108
34 26 57
34 27 49
34 28 7
34 29 87
34 30 68
34 31 45
34 32 88
34 33 11
35 0 119
35 1 53
35 2 81
35 3 85
35 4 32
35 5 98
35 6 98
35 7 76
35 8 6
35 9 89
35 10 12
35 11 91
35 12 105
35 13 10
35 14 69
35 15 109
35 16 59
35 17 65
35 18 74
35 19 14
35 20 20
35 21 102
35 22 19
35 23 84
35 24 64
35 25 17
35 26 47
35 27 52
35 28 105
35 29 44
35 30 21
35 31 107
35 32 114
35 33 66
35 34 14
36 0 84
36 1 88
36 2 16
36 3 13
36 4 37
36 5 80
36 6 100
36 7 90
36 8 68
36 9 35
36 10 75
36 11 120
36 12 20
36 13 44
36 14 98
36 15 104
36 16 76
36 17 104
36 18 58
36 19 9
36 20 85
36 21 56
36 22 55
36 23 5
36 24 2
36 25 34
36 26 97
36 27 66
36 28 56
36 29 19
36 30 66
36 31 104
36 32 107
36 33 87
36 34 103
36 35 49
37 0 79
37 1 101
37 2 21
37 3 1
37 4 52
37 5 49
37 6 105
37 7 54
37 8 30
37 9 60
37 10 55
37 11 105
37 12 71
37 13 41
37 14 46
37 15 18
37 16 16
37 17 70
37 18 4
37 19 41
37 20 38
37 21 106
37 22 57
37 23 107
37 24 119
37 25 97
37 26 100
37 27 12
37 28 81
37 29 56
37 30 83
37 31 3
37 32 34
37 33 56
37 34 74
37 35 2
37 36 37
38 0 5
38 1 102
38 2 29
38 3 100
38 4 70
38 5 92
38 6 19
38 7 101
38 8 85
38 9 55
38 10 91
38 11 79
38 12 84
38 13 106
38 14 102
38 15 80
38 16 9
38 17 9
38 18 110
38 19 44
38 20 51
38 21 74
38 22 35
38 23 76
38 24 101
38 25 30
38 26 63
38 27 84
38 28 73
38 29 36
38 30 41
38 31 12
38 32 2
38 33 54
38 34 68
38 35 92
38 36 41
38 37 97
39 0 94
39 1 109
39 2 53
39 3 63
39 4 91
39 5 47
39 6 62
39 7 28
39 8 91
39 9 91
39 10 114
39 11 22
39 12 49
39 13 13
39 14 34
39 15 96
39 16 83
39 17 54
39 18 91
39 19 119
39 20 16
39 21 35
39 22 115
39 23 66
39 24 50
39 25 65
39 26 65
39 27 44
39 28 108
39 29 116
39 30 114
39 31 39
39 32 92
39 33 106
39 34 93
39 35 17
39 36 104
39 37 86
39 38 8
40 0 58
40 1 38
40 2 71
40 3 85
40 4 13
40 5 74
40 6 31
40 7 99
40 8 110
40 9 83
40 10 101
40 11 73
40 12 10
40 13 21
40 14 24
40 15 28
40 16 94
40 17 111
40 18 13
40 19 79
40 20 1
40 21 46
40 22 41
40 23 56
40 24 74
40 25 58
40 26 39
40 27 11
40 28 69
40 29 11
40 30 28
40 31 8
40 32 7
40 33 31
40 34 43
40 35 8
40 36 99
40 37 82
40 38 38
40 39 6
41 0 1
41 1 28
41 2 52
41 3 78
41 4 41
41 5 53
41 6 26
41 7 63
41 8 50
41 9 25
41 10 113
41 11 73
41 12 49
41 13 31
41 14 81
41 15 23
41 16 53
41 17 6
41 18 21
41 19 44
41 20 79
41 21 15
41 22 80
41 23 44
41 24 40
41 25 16
41 26 43
41 27 79
41 28 105
41 29 4
41 30 11
41 31 113
41 32 67
41 33 29
41 34 83
41 35 47
41 36 15
41 37 75
41 38 84
41 39 94
41 40 92
42 0 80
42 1 87
42 2 33
42 3 10
42 4 29
42 5 67
42 6 14
42 7 118
42 8 94
42 9 76
42 10 63
42 11 89
42 12 91
42 13 89
42 14 42
42 15 66
42 16 95
42 17 106
42 18 53
42 19 32
42 20 96
42 21 80
42 22 101
42 23 46
42 24 120
42 25 98
42 26 6
42 27 28
42 28 85
42 29 59
42 30 20
42 31 117
42 32 22
42 33 72
42 34 66
42 35 1
42 36 115
42 37 32
42 38 38
42 39 81
42 40 65
42 41 14
43 0 107
43 1 68
43 2 34
43 3 17
43 4 38
43 5 85
43 6 91
43 7 19
43 8 14
43 9 47
43 10 24
43 11 31
43 12 106
43 13 65
43 14 69
43 15 77
43 16 109
43 17 98
43 18 47
43 19 98
43 20 58
43 21 107
43 22 63
43 23 11
43 24 94
43 25 57
43 26 42
43 27 85
43 28 40
43 29 19
43 30 24
43 31 15
43 32 67
43 33 22
43 34 106
43 35 41
43 36 110
43 37 60
43 38 76
43 39 28
43 40 62
43 41 111
43 42 117
44 0 19
44 1 49
44 2 27
44 3 25
44 4 67
44 5 88
44 6 37
44 7 57
44 8 21
44 9 68
44 10 119
44 11 87
44 12 118
44 13 17
44 14 1
44 15 6
44 16 32
44 17 75
44 18 22
44 19 119
44 20 18
44 21 101
44 22 102
44 23 9
44 24 72
44 25 65
44 26 19
44 27 61
44 28 104
44 29 3
44 30 88
44 31 94
44 32 74
44 33 38
44 34 85
44 35 90
44 36 50
44 37 24
44 38 33
44 39 32
44 40 31
44 41 86
44 42 33
44 43 65
45 0 31
45 1 8
45 2 36
45 3 97
45 4 95
45 5 112
45 6 59
45 7 114
45 8 74
45 9 75
45 10 114
45 11 9
45 12 95
45 13 87
45 14 52
45 15 43
45 16 55
45 17 115
45 18 94
45 19 69
45 20 90
45 21 66
45 22 24
45 23 3
45 24 48
45 25 34
45 26 48
45 27 120
45 28 104
45 29 8
45 30 23
45 31 95
45 32 115
45 33 77
45 34 8
45 35 111
45 36 50
45 37 85
45 38 90
45 39 38
45 40 88
45 41 98
45 42 108
45 43 30
45 44 42
46 0 69
46 1 54
46 2 59
46 3 115
46 4 3
46 5 4
46 6 7
46 7 57
46 8 51
46 9 94
46 10 34
46 11 120
46 12 81
46 13 36
46 14 31
46 15 96
46 16 4
46 17 64
46 18 98
46 19 19
46 20 120
46 21 119
46 22 72
46 23 62
46 24 61
46 25 52
46 26 112
46 27 54
46 28 89
46 29 6
46 30 57
46 31 20
46 32 17
46 33 75
46 34 106
46 35 91
46 36 79
46 37 44
46 38 7
46 39 44
46 40 12
46 41 38
46 42 67
46 43 101
46 44 20
46 45 63
47 0 40
47 1 92
47 2 80
47 3 39
47 4 105
47 5 95
47 6 91
47 7 74
47 8 47
47 9 76
47 10 52
47 11 92
47 12 78
47 13 40
47 14 63
47 15 69
47 16 68
47 17 61
47 18 104
47 19 70
47 20 78
47 21 71
47 22 58
47 23 56
47 24 114
47 25 73
47 26 112
47 27 41
47 28 15
47 29 79
47 30 11
47 31 44
47 32 80
47 33 37
47 34 15
47 35 92
47 36 63
47 37 75
47 38 49
47 39 32
47 40 69
47 41 37
47 42 56
47 43 70
47 44 89
47 45 59
47 46 63
48 0 49
48 1 84
48 2 107
48 3 113
48 4 9
48 5 49
48 6 56
48 7 85
48 8 89
48 9 5
48 10 104
48 11 111
48 12 118
48 13 102
48 14 18
48 15 83
48 16 103
48 17 31
48 18 81
48 19 4
48 20 14
48 21 8
48 22 16
48 23 84
48 24 110
48 25 73
48 26 9
48 27 116
48 28 31
48 29 37
48 30 55
48 31 89
48 32 15
48 33 94
48 34 4
48 35 93
48 36 99
48 37 88
48 38 66
48 39 61
48 40 30
48 41 120
48 42 29
48 43 12
48 44 101
48 45 80
48 46 111
48 47 65
49 0 74
49 1 4
49 2 90
49 3 106
49 4 69
49 5 109
49 6 48
49 7 12
49 8 17
49 9 57
49 10 35
49 11 118
49 12 74
49 13 79
49 14 15
49 15 25
49 16 104
49 17 107
49 18 86
49 19 39
49 20 63
49 21 58
49 22 10
49 23 55
49 24 67
49 25 31
49 26 12
49 27 112
49 28 112
49 29 108
49 30 45
49 31 119
49 32 93
49 33 37
49 34 114
49 35 57
49 36 31
49 37 2
49 38 5
49 39 17
49 40 120
49 41 17
49 42 11
49 43 89
49 44 100
49 45 94
49 46 75
49 47 46
49 48 28
50 0 79
50 1 87
50 2 68
50 3 80
50 4 37
50 5 32
50 6 111
50 7 81
50 8 48
50 9 8
50 10 87
50 11 69
50 12 89
50 13 73
50 14 59
50 15 106
50 16 18
50 17 17
50 18 38
50 19 5
50 20 32
50 21 12
50 22 103
50 23 113
50 24 110
50 25 34
50 26 1
50 27 41
50 28 80
50 29 30
50 30 72
50 31 24
50 32 82
50 33 88
50 34 105
50 35 57
50 36 115
50 37 26
50 38 56
50 39 118
50 40 69
50 41 102
50 42 7
50 43 35
50 44 75
50 45 40
50 46 8
50 47 97
50 48 96
50 49 64
51 0 119
51 1 57
51 2 111
51 3 115
51 4 25
51 5 87
51 6 109
51 7 30
51 8 60
51 9 89
51 10 94
51 11 44
51 12 52
51 13 3
51 14 115
51 15 26
51 16 51
51 17 99
51 18 92
51 19 99
51 20 32
51 21 9
51 22 113
51 23 27
51 24 18
51 25 87
51 26 76
51 27 93
51 28 86
51 29 80
51 30 8
51 31 72
51 32 74
51 33 87
51 34 117
51 35 30
51 36 54
51 37 37
51 38 47
51 39 101
51 40 36
51 41 83
51 42 52
51 43 35
51 44 14
51 45 15
51 46 28
51 47 43
51 48 73
51 49 17
51 50 1
52 0 80
52 1 60
52 2 90
52 3 120
52 4 104
52 5 34
52 6 65
52 7 109
52 8 71
52 9 94
52 10 82
52 11 92
52 12 117
52 13 26
52 14 53
52 15 70
52 16 90
52 17 65
52 18 90
52 19 27
52 20 38
52 21 31
52 22 100
52 23 24
52 24 28
52 25 117
52 26 4
52 27 55
52 28 115
52 29 53
52 30 34
52 31 38
52 32 113
52 33 96
52 34 100
52 35 9
52 36 39
52 37 28
52 38 39
52 39 8
52 40 93
52 41 46
52 42 17
52 43 11
52 44 41
52 45 17
52 46 83
52 47 57
52 48 33
52 49 71
52 50 18
52 51 33
53 0 26
53 1 47
53 2 83
53 3 39
53 4 22
53 5 94
53 6 32
53 7 22
53 8 41
53 9 115
53 10 58
53 11 13
53 12 42
53 13 70
53 14 18
53 15 79
53 16 103
53 17 75
53 18 62
53 19 69
53 20 63
53 21 99
53 22 34
53 23 4
53 24 45
53 25 56
53 26 101
53 27 41
53 28 76
53 29 27
53 30 63
53 31 94
53 32 33
53 33 37
53 34 69
53 35 15
53 36 98
53 37 25
53 38 29
53 39 113
53 40 30
53 41 75
53 42 28
53 43 117
53 44 120
53 45 63
53 46 46
53 47 103
53 48 51
53 49 46
53 50 34
53 51 24
53 52 26
54 0 118
54 1 21
54 2 94
54 3 76
54 4 48
54 5 59
54 6 33
54 7 58
54 8 120
54 9 86
54 10 99
54 11 42
54 12 72
54 13 59
54 14 47
54 15 49
54 16 25
54 17 21
54 18 83
54 19 92
54 20 89
54 21 25
54 22 9
54 23 39
54 24 111
54 25 3
54 26 95
54 27 59
54 28 14
54 29 53
54 30 45
54 31 30
54 32 89
54 33 81
54 34 18
54 35 53
54 36 84
54 37 42
54 38 14
54 39 31
54 40 98
54 41 36
54 42 79
54 43 36
54 44 30
54 45 6
54 46 98
54 47 86
54 48 50
54 49 3
54 50 23
54 51 25
54 52 105
54 53 17
55 0 70
55 1 120
55 2 18
55 3 26
55 4 119
55 5 5
55 6 65
55 7 44
55 8 76
55 9 120
55 10 43
55 11 36
55 12 114
55 13 101
55 14 8
55 15 19
55 16 113
55 17 9
55 18 40
55 19 63
55 20 21
55 21 110
55 22 5
55 23 43
55 24 46
55 25 112
55 26 72
55 27 41
55 28 50
55 29 6
55 30 26
55 31 91
55 32 4
55 33 98
55 34 119
55 35 90
55 36 97
55 37 47
55 38 103
55 39 107
55 40 1
55 41 80
55 42 111
55 43 14
55 44 53
55 45 55
55 46 67
55 47 74
55 48 47
55 49 78
55 50 44
55 51 18
55 52 36
55 53 95
55 54 115
56 0 114
56 1 91
56 2 66
56 3 120
56 4 27
56 5 118
56 6 96
56 7 4
56 8 81
56 9 95
56 10 74
56 11 14
56 12 105
56 13 97
56 14 19
56 15 23
56 16 24
56 17 51
56 18 32
56 19 85
56 20 86
56 21 81
56 22 50
56 23 117
56 24 28
56 25 15
56 26 20
56 27 32
56 28 50
56 29 42
56 30 34
56 31 73
56 32 81
56 33 89
56 34 33
56 35 93
56 36 21
56 37 63
56 38 113
56 39 4
56 40 37
56 41 50
56 42 22
56 43 54
56 44 33
56 45 25
56 46 16
56 47 117
56 48 94
56 49 15
56 50 53
56 51 74
56 52 4
56 53 117
56 54 34
56 55 38
57 0 35
57 1 25
57 2 28
57 3 45
57 4 110
57 5 63
57 6 43
57 7 71
57 8 71
57 9 74
57 10 114
57 11 51
57 12 9
57 13 15
57 14 98
57 15 99
57 16 93
57 17 11
57 18 18
57 19 70
57 20 113
57 21 31
57 22 24
57 23 42
57 24 34
57 25 7
57 26 54
57 27 68
57 28 38
57 29 33
57 30 108
57 31 15
57 32 86
57 33 64
57 34 91
57 35 49
57 36 62
57 37 29
57 38 65
57 39 116
57 40 110
57 41 71
57 42 54
57 43 18
57 44 2
57 45 82
57 46 64
57 47 32
57 48 95
57 49 119
57 50 110
57 51 24
57 52 11
57 53 78
57 54 31
57 55 73
57 56 53
58 0 37
58 1 1
58 2 109
58 3 1
58 4 69
58 5 44
58 6 112
58 7 2
58 8 24
58 9 101
58 10 101
58 11 32
58 12 68
58 13 96
58 14 72
58 15 108
58 16 27
58 17 70
58 18 35
58 19 31
58 20 48
58 21 106
58 22 108
58 23 72
58 24 91
58 25 67
58 26 54
58 27 7
58 28 111
58 29 9
58 30 67
58 31 117
58 32 57
58 33 29
58 34 99
58 35 80
58 36 40
58 37 108
58 38 80
58 39 16
58 40 114
58 41 88
58 42 43
58 43 34
58 44 75
58 45 57
58 46 72
58 47 85
58 48 93
58 49 1
58 50 87
58 51 15
58 52 9
58 53 29
58 54 45
58 55 104
58 56 99
58 57 83
59 0 45
59 1 28
59 2 108
59 3 31
59 4 115
59 5 62
59 6 11
59 7 69
59 8 89
59 9 100
59 10 101
59 11 89
59 12 3
59 13 49
59 14 65
59 15 82
59 16 27
59 17 80
59 18 120
59 19 17
59 20 86
59 21 48
59 22 77
59 23 16
59 24 33
59 25 106
59 26 74
59 27 55
59 28 99
59 29 67
59 30 108
59 31 52
59 32 38
59 33 112
59 34 5
59 35 15
59 36 109
59 37 59
59 38 5
59 39 74
59 40 88
59 41 120
59 42 81
59 43 13
59 44 110
59 45 55
59 46 25
59 47 107
59 48 84
59 49 52
59 50 18
59 51 69
59 52 90
59 53 92
59 54 95
59 55 3
59 56 14
59 57 82
59 58 44
60 0 96
60 1 32
60 2 110
60 3 38
60 4 33
60 5 37
60 6 38
60 7 106
60 8 72
60 9 30
60 10 5
60 11 114
60 12 14
60 13 109
60 14 56
60 15 11
60 16 3
60 17 102
60 18 10
60 19 119
60 20 45
60 21 54
60 22 46
60 23 96
60 24 73
60 25 115
60 26 31
60 27 13
60 28 37
60 29 20
60 30 56
60 31 69
60 32 99
60 33 7
60 34 35
60 35 55
60 36 2
60 37 61
60 38 36
60 39 52
60 40 19
60 41 2
60 42 112
60 43 70
60 44 98
60 45 104
60 46 30
60 47 49
60 48 37
60 49 43
60 50 23
60 51 27
60 52 110
60 53 115
60 54 3
60 55 43
60 56 7
60 57 55
60 58 110
60 59 103
61 0 9
61 1 62
61 2 99
61 3 90
61 4 37
61 5 29
61 6 12
61 7 21
61 8 76
61 9 69
61 10 57
61 11 74
61 12 83
61 13 92
61 14 51
61 15 34
61 16 47
61 17 5
61 18 2
61 19 51
61 20 49
61 21 43
61 22 79
61 23 105
61 24 111
61 25 111
61 26 57
61 27 39
61 28 76
61 29 76
61 30 29
61 31 6
61 32 98
61 33 100
61 34 117
61 35 12
61 36 15
61 37 118
61 38 82
61 39 20
61 40 25
61 41 12
61 42 116
61 43 72
61 44 54
61 45 6
61 46 29
61 47 42
61 48 41
61 49 19
61 50 119
61 51 103
61 52 44
61 53 75
61 54 36
61 55 118
61 56 46
61 57 81
61 58 47
61 59 80
61 60 100
62 0 66
62 1 14
62 2 105
62 3 33
62 4 89
62 5 71
62 6 110
62 7 21
62 8 119
62 9 34
62 10 51
62 11 101
62 12 117
62 13 48
62 14 33
62 15 109
62 16 95
62 17 50
62 18 55
62 19 109
62 20 75
62 21 98
62 22 83
62 23 81
62 24 17
62 25 86
62 26 9
62 27 88
62 28 65
62 29 99
62 30 35
62 31 103
62 32 41
62 33 87
62 34 10
62 35 49
62 36 32
62 37 94
62 38 1
62 39 36
62 40 108
62 41 103
62 42 71
62 43 64
62 44 103
62 45 93
62 46 75
62 47 86
62 48 84
62 49 28
62 50 7
62 51 116
62 52 110
62 53 60
62 54 76
62 55 27
62 56 64
62 57 30
62 58 64
62 59 94
62 60 39
62 61 21
63 0 44
63 1 62
63 2 76
63 3 52
63 4 52
63 5 29
63 6 24
63 7 113
63 8 7
63 9 18
63 10 80
63 11 10
63 12 49
63 13 16
63 14 62
63 15 44
63 16 18
63 17 69
63 18 80
63 19 16
63 20 93
63 21 115
63 22 120
63 23 40
63 24 59
63 25 23
63 26 55
63 27 101
63 28 5
63 29 74
63 30 77
63 31 10
63 32 97
63 33 15
63 34 113
63 35 85
63 36 5
63 37 101
63 38 64
63 39 84
63 40 13
63 41 17
63 42 120
63 43 21
63 44 13
63 45 22
63 46 35
63 47 76
63 48 31
63 49 18
63 50 24
63 51 72
63 52 100
63 53 91
63 54 90
63 55 88
63 56 71
63 57 111
63 58 3
63 59 119
63 60 117
63 61 58
63 62 46
64 0 39
64 1 76
64 2 52
64 3 12
64 4 4
64 5 100
64 6 17
64 7 105
64 8 95
64 9 105
64 10 38
64 11 93
64 12 103
64 13 96
64 14 106
64 15 54
64 16 19
64 17 82
64 18 117
64 19 93
64 20 9
64 21 56
64 22 73
64 23 41
64 24 28
64 25 21
64 26 107
64 27 26
64 28 73
64 29 97
64 30 90
64 31 8
64 32 88
64 33 46
64 34 61
64 35 74
64 36 96
64 37 110
64 38 109
64 39 99
64 40 117
64 41 28
64 42 33
64 43 49
64 44 28
64 45 109
64 46 116
64 47 75
64 48 59
64 49 104
64 50 46
64 51 38
64 52 105
64 53 34
64 54 3
64 55 78
64 56 37
64 57 100
64 58 68
64 59 29
64 60 116
64 61 60
64 62 90
64 63 35
65 0 12
65 1 63
65 2 76
65 3 17
65 4 27
65 5 4
65 6 75
65 7 47
65 8 114
65 9 68
65 10 10
65 11 34
65 12 85
65 13 68
65 14 74
65 15 27
65 16 16
65 17 49
65 18 43
65 19 63
65 20 10
65 21 87
65 22 83
65 23 82
65 24 42
65 25 103
65 26 38
65 27 120
65 28 70
65 29 115
65 30 88
65 31 13
65 32 7
65 33 105
65 34 31
65 35 98
65 36 28
65 37 110
65 38 49
65 39 48
65 40 31
65 41 26
65 42 19
65 43 18
65 44 105
65 45 1
65 46 44
65 47 98
65 48 43
65 49 53
65 50 62
65 51 42
65 52 56
65 53 51
65 54 43
65 55 115
65 56 63
65 57 87
65 58 42
65 59 55
65 60 14
65 61 43
65 62 89
65 63 55
65 64 4
66 0 117
66 1 103
66 2 86
66 3 47
66 4 87
66 5 108
66 6 111
66 7 21
66 8 102
66 9 24
66 10 64
66 11 55
66 12 1
66 13 1
66 14 66
66 15 24
66 16 4
66 17 112
66 18 42
66 19 46
66 20 80
66 21 95
66 22 110
66 23 85
66 24 50
66 25 69
66 26 6
66 27 37
66 28 78
66 29 66
66 30 65
66 31 14
66 32 64
66 33 104
66 34 32
66 35 99
66 36 52
66 37 20
66 38 78
66 39 77
66 40 107
66 41 10
66 42 18
66 43 22
66 44 29
66 45 60
66 46 65
66 47 35
66 48 73
66 49 13
66 50 17
66 51 79
66 52 89
66 53 75
66 54 41
66 55 44
66 56 106
66 57 67
66 58 14
66 59 102
66 60 104
66 61 64
66 62 33
66 63 118
66 64 95
66 65 67
67 0 71
67 1 9
67 2 32
67 3 79
67 4 35
67 5 18
67 6 111
67 7 91
67 8 36
67 9 83
67 10 89
67 11 104
67 12 39
67 13 98
67 14 43
67 15 103
67 16 90
67 17 66
67 18 45
67 19 36
67 20 90
67 21 58
67 22 55
67 23 44
67 24 33
67 25 39
67 26 73
67 27 71
67 28 75
67 29 95
67 30 118
67 31 120
67 32 119
67 33 6
67 34 7
67 35 4
67 36 3
67 37 77
67 38 12
67 39 20
67 40 32
67 41 56
67 42 31
67 43 15
67 44 24
67 45 48
67 46 76
67 47 22
67 48 8
67 49 70
67 50 16
67 51 115
67 52 99
67 53 57
67 54 23
67 55 65
67 56 100
67 57 9
67 58 48
67 59 8
67 60 12
67 61 12
67 62 82
67 63 107
67 64 36
67 65 109
67 66 84
68 0 17
68 1 105
68 2 56
68 3 63
68 4 19
68 5 90
68 6 86
68 7 84
68 8 19
68 9 82
68 10 119
68 11 41
68 12 29
68 13 27
68 14 63
68 15 101
68 16 42
68 17 94
68 18 7
68 19 43
68 20 115
68 21 27
68 22 19
68 23 16
68 24 75
68 25 9
68 26 91
68 27 29
68 28 66
68 29 38
68 30 116
68 31 66
68 32 105
68 33 14
68 34 25
68 35 83
68 36 44
68 37 31
68 38 35
68 39 63
68 40 78
68 41 108
68 42 100
68 43 46
68 44 24
68 45 4
68 46 29
68 47 116
68 48 90
68 49 96
68 50 23
68 51 93
68 52 91
68 53 44
68 54 24
68 55 51
68 56 23
68 57 32
68 58 101
68 59 25
68 60 89
68 61 21
68 62 75
68 63 95
68 64 12
68 65 82
68 66 80
68 67 104
69 0 18
69 1 59
69 2 70
69 3 16
69 4 118
69 5 119
69 6 35
69 7 5
69 8 21
69 9 42
69 10 75
69 11 4
69 12 102
69 13 51
69 14 117
69 15 31
69 16 27
69 17 15
69 18 41
69 19 9
69 20 99
69 21 10
69 22 61
69 23 84
69 24 75
69 25 98
69 26 30
69 27 107
69 28 68
69 29 70
69 30 85
69 31 62
69 32 57
69 33 95
69 34 54
69 35 38
69 36 15
69 37 60
69 38 98
69 39 47
69 40 13
69 41 60
69 42 60
69 43 4
69 44 81
69 45 118
69 46 64
69 47 1
69 48 87
69 49 79
69 50 14
69 51 53
69 52 79
69 53 10
69 54 116
69 55 100
69 56 80
69 57 39
69 58 12
69 59 118
69 60 97
69 61 37
69 62 25
69 63 82
69 64 98
69 65 61
69 66 11
69 67 73
69 68 70
